QBPP_HJ+_25_025_10_1
25 122 278
38 33 42 18 14 22 2 28 41 27 22 47 49 2 21 8 2 4 23 8 49 44 14 33 17
   0   0   0  54   0  33   0   0   0   0   0   0  49   0   0   0   0   0   0   0   0   0   0   0  44
   0   0  82   0   0   0   0   0  45   0   0   0   0   0   0  88   3   0   0   0   0  28   0   0   0
   0  82   0   0  20  11   0   0  90   0   0   0   0   0  35  74  52  74  92   0   0   0  53   0   0
  54   0   0   0   0  57   0   0   0   0   2  84  53   0   0   0  67  53   0  84   0   0   0   9   0
   0   0  20   0   0   0   0   0   0   0   0   0   0   0   0   0  64   0   0   0  75   0  92   0   0
  33   0  11  57   0   0   0   0  47   0  60  74   0   0   0   0   0  77  14   0   0   0   0   0   0
   0   0   0   0   0   0   0   0   0   0   0   0   0   0   0   0   0   0   0   0   0   0  89  68   0
   0   0   0   0   0   0   0   0   0   0   0   0   0   0   0   0   0   0   7  11   0   6  25  14  22
   0  45  90   0   0  47   0   0   0   0  66   0   0   0   1  94   0  37  31  31  73  59   0   0   0
   0   0   0   0   0   0   0   0   0   0   0   0  83   0   0  40   0   0   0  59   0  75   0   0   0
   0   0   0   2   0  60   0   0  66   0   0   0   0   0   0   9   0   0   0   0   0   0  97   0   0
   0   0   0  84   0  74   0   0   0   0   0   0  77  64   0   0  23  97   0   0   0   0   0   0   0
  49   0   0  53   0   0   0   0   0  83   0  77   0   0   0   0   0   0  31   0   0  61   0  96   0
   0   0   0   0   0   0   0   0   0   0   0  64   0   0   0   0   0  73   0   0   0  84   0   0  22
   0   0  35   0   0   0   0   0   1   0   0   0   0   0   0  50   0  83   0   0   0   0   0   0   0
   0  88  74   0   0   0   0   0  94  40   9   0   0   0  50   0   0   0   0   0   0   0   0   0   0
   0   3  52  67  64   0   0   0   0   0   0  23   0   0   0   0   0   0   0   0   0  18   0   0   0
   0   0  74  53   0  77   0   0  37   0   0  97   0  73  83   0   0   0   0   0  12   0   0  57   0
   0   0  92   0   0  14   0   7  31   0   0   0  31   0   0   0   0   0   0   0   0  86  35   0   4
   0   0   0  84   0   0   0  11  31  59   0   0   0   0   0   0   0   0   0   0   0  80   0  78   0
   0   0   0   0  75   0   0   0  73   0   0   0   0   0   0   0   0  12   0   0   0  49   0  49   0
   0  28   0   0   0   0   0   6  59  75   0   0  61  84   0   0  18   0  86  80  49   0   0   0  24
   0   0  53   0  92   0  89  25   0   0  97   0   0   0   0   0   0   0  35   0   0   0   0   0   0
   0   0   0   9   0   0  68  14   0   0   0   0  96   0   0   0   0  57   0  78  49   0   0   0  77
  44   0   0   0   0   0   0  22   0   0   0   0   0  22   0   0   0   0   4   0   0  24   0  77   0
